p edge 45 64
e 1 2
e 1 3
e 1 4
e 2 5
e 2 6
e 3 7
e 4 19
e 4 23
e 5 11
e 5 14
e 6 35
e 6 36
e 7 8
e 7 9
e 8 19
e 8 24
e 8 25
e 8 9
e 9 26
e 9 42
e 10 11
e 10 12
e 10 13
e 11 14
e 11 15
e 11 16
e 12 38
e 12 43
e 13 43
e 15 16
e 15 17
e 17 44
e 18 19
e 18 20
e 19 21
e 19 22
e 20 27
e 20 29
e 21 22
e 22 28
e 22 33
e 23 34
e 23 33
e 24 26
e 25 27
e 26 27
e 26 41
e 27 28
e 28 30
e 28 31
e 29 30
e 30 31
e 30 32
e 33 39
e 33 40
e 35 37
e 36 37
e 36 39
e 36 40
e 39 40
e 41 42
e 42 44
e 42 45
e 44 45
l 6
